56
120
96	2
95	2
94	1
93	1
92	1
91	2
89	1
88	1
87	1
86	3
85	1
81	1
79	1
78	1
77	2
75	2
74	1
72	1
70	1
69	1
68	3
67	2
64	3
63	2
62	1
61	2
60	2
59	2
56	1
55	1
54	2
53	1
49	2
47	1
46	3
45	2
44	1
39	1
38	3
36	1
35	1
34	2
33	1
32	2
31	2
28	2
27	3
25	4
24	4
23	1
22	1
19	2
18	2
17	8
14	1
12	1
